1 31 2
-302 -88 -161 -186 -459 -537 -786 -608 -695 -575 -670 -32 -59 -18 -835 -53 -826 -855 -285 -453 -211 -489 -933 -572 -4 -503 -185 -237 -396 -7 0 
-655 -958 -859 -850 -621 -402 -267 -454 -293 -477 -268 -967 -962 -935 -211 -896 -190 -75 -654 -452 -701 -526 -153 -330 -959 -475 -895 -734 -520 -966 0 
1038 1206 918 932 938 952 883 898 991 1227 1064 817 1032 773 1106 960 817 1060 739 838 1009 911 975 1003 1084 1088 903 1155 970 981 1 
14634 
